NAME: rand_0/map7_180
TYPE: TSP
COMMENT: autogenerated using a wonderful map creator
DIMENSION: 210
EDGE_WEIGHT_TYPE: EUC_2D
NODE_COORD_SECTION
1 9.0 57.0
2 58.0 21.0
3 41.0 60.0
4 42.0 61.0
5 4.0 1.0
6 41.0 61.0
7 11.0 59.0
8 59.0 21.0
9 45.0 59.0
10 1.0 4.0
11 62.0 19.0
12 15.0 59.0
13 1.0 6.0
14 47.0 58.0
15 9.0 59.0
16 45.0 63.0
17 42.0 60.0
18 58.0 16.0
19 42.0 57.0
20 60.0 23.0
21 11.0 60.0
22 13.0 62.0
23 58.0 17.0
24 4.0 4.0
25 46.0 59.0
26 57.0 19.0
27 6.0 6.0
28 5.0 7.0
29 41.0 62.0
30 59.0 22.0
31 47.0 59.0
32 45.0 58.0
33 62.0 22.0
34 14.0 60.0
35 12.0 62.0
36 61.0 20.0
37 6.0 4.0
38 12.0 61.0
39 1.0 5.0
40 4.0 7.0
41 62.0 17.0
42 13.0 63.0
43 11.0 62.0
44 57.0 21.0
45 4.0 6.0
46 59.0 18.0
47 2.0 1.0
48 44.0 57.0
49 60.0 19.0
50 12.0 58.0
51 5.0 4.0
52 45.0 57.0
53 13.0 57.0
54 2.0 6.0
55 61.0 18.0
56 4.0 5.0
57 58.0 18.0
58 10.0 57.0
59 7.0 7.0
60 2.0 5.0
61 55.0 2.0
62 42.0 39.0
63 15.0 30.0
64 18.0 26.0
65 35.0 42.0
66 30.0 55.0
67 20.0 20.0
68 62.0 35.0
69 39.0 33.0
70 54.0 31.0
71 19.0 9.0
72 49.0 53.0
73 58.0 31.0
74 22.0 44.0
75 34.0 58.0
76 50.0 63.0
77 59.0 11.0
78 25.0 43.0
79 14.0 15.0
80 62.0 46.0
81 23.0 45.0
82 60.0 39.0
83 18.0 3.0
84 35.0 19.0
85 38.0 18.0
86 27.0 36.0
87 1.0 17.0
88 53.0 9.0
89 44.0 49.0
90 57.0 34.0
91 47.0 20.0
92 11.0 55.0
93 14.0 17.0
94 11.0 9.0
95 41.0 19.0
96 52.0 19.0
97 21.0 50.0
98 21.0 59.0
99 41.0 37.0
100 36.0 59.0
101 25.0 38.0
102 29.0 20.0
103 31.0 17.0
104 6.0 27.0
105 51.0 59.0
106 39.0 39.0
107 38.0 41.0
108 12.0 22.0
109 21.0 25.0
110 43.0 55.0
111 54.0 37.0
112 41.0 21.0
113 18.0 53.0
114 47.0 34.0
115 13.0 14.0
116 1.0 12.0
117 34.0 46.0
118 19.0 45.0
119 63.0 15.0
120 51.0 52.0
121 21.0 18.0
122 20.0 37.0
123 5.0 18.0
124 57.0 1.0
125 4.0 29.0
126 36.0 45.0
127 39.0 62.0
128 19.0 38.0
129 29.0 15.0
130 49.0 27.0
131 43.0 41.0
132 60.0 2.0
133 52.0 53.0
134 12.0 17.0
135 46.0 49.0
136 11.0 52.0
137 61.0 10.0
138 29.0 42.0
139 18.0 39.0
140 50.0 19.0
141 43.0 13.0
142 44.0 12.0
143 17.0 25.0
144 30.0 22.0
145 53.0 54.0
146 42.0 33.0
147 57.0 15.0
148 44.0 30.0
149 36.0 47.0
150 20.0 60.0
151 18.0 11.0
152 51.0 38.0
153 3.0 53.0
154 39.0 18.0
155 28.0 52.0
156 31.0 23.0
157 13.0 39.0
158 38.0 38.0
159 26.0 36.0
160 23.0 28.0
161 44.0 5.0
162 55.0 35.0
163 36.0 31.0
164 39.0 57.0
165 25.0 19.0
166 14.0 46.0
167 57.0 26.0
168 23.0 58.0
169 60.0 43.0
170 23.0 3.0
171 9.0 50.0
172 29.0 28.0
173 14.0 9.0
174 51.0 3.0
175 15.0 38.0
176 42.0 19.0
177 39.0 50.0
178 28.0 29.0
179 19.0 26.0
180 29.0 3.0
181 41.0 41.0
182 43.0 47.0
183 60.0 63.0
184 4.0 10.0
185 55.0 12.0
186 43.0 1.0
187 30.0 1.0
188 30.0 10.0
189 26.0 58.0
190 37.0 25.0
191 46.0 3.0
192 18.0 63.0
193 42.0 30.0
194 31.0 2.0
195 20.0 2.0
196 59.0 58.0
197 21.0 19.0
198 9.0 54.0
199 1.0 43.0
200 47.0 10.0
201 17.0 6.0
202 36.0 19.0
203 42.0 14.0
204 10.0 9.0
205 55.0 41.0
206 8.0 21.0
207 14.0 34.0
208 20.0 50.0
209 22.0 47.0
210 46.0 14.0
211 23.0 46.0
212 20.0 59.0
213 15.0 17.0
214 60.0 49.0
215 7.0 13.0
216 38.0 28.0
217 7.0 31.0
218 33.0 50.0
219 3.0 27.0
220 45.0 42.0
221 58.0 36.0
222 12.0 48.0
223 50.0 50.0
224 44.0 43.0
225 21.0 23.0
226 25.0 39.0
227 17.0 1.0
228 54.0 20.0
229 33.0 61.0
230 45.0 26.0
231 54.0 38.0
232 54.0 47.0
233 19.0 25.0
234 3.0 38.0
235 14.0 38.0
236 6.0 55.0
237 23.0 50.0
238 50.0 34.0
239 6.0 9.0
240 44.0 27.0
START_DEPOT_SECTION
1
2
3
4
5
6
7
8
9
10
11
12
13
14
15
16
17
18
19
20
21
22
23
24
25
26
27
28
29
30
-1
END_DEPOT_SECTION
31
32
33
34
35
36
37
38
39
40
41
42
43
44
45
46
47
48
49
50
51
52
53
54
55
56
57
58
59
60
-1
EOF
